13214.03,52.7,59.87
13464.33,51.72,58.76
12997.6,53.58,60.87
11635.1,59.85,67.99
14933.97,46.63,52.97
12064.21,57.72,65.57
13409.65,51.93,59.0
11639.08,59.83,67.97
13553.05,51.38,58.37
12872.93,54.1,61.45
12839.32,54.24,61.62
12988.11,53.62,60.91
13045.16,53.38,60.64
13505.41,51.56,58.58
13283.87,52.42,59.55
12849.32,54.2,61.57
14687.08,47.42,53.86
14549.97,47.86,54.37
11880.49,58.62,66.59
12165.85,57.24,65.03
